Minimize
  20 food.1 + 10 food.2 + 31 food.3 + 11 food.4 + 12 food.5
Subject To
 nutrient.1: 2 food.1 + 3 food.3 + food.4 + 2 food.5 >= 22
 nutrient.2: food.2 + 2 food.3 + 2 food.4 + food.5 >= 12
Bounds
End
